CMPL model generation - running

CMPL version: 1.11.0
Authors: Thomas Schleiff, Mike Steglich
Distributed under the GPLv3 

create model instance ...
write model instance ...
CMPL model generation - finished

Solver - running


Welcome to IBM(R) ILOG(R) CPLEX(R) Interactive Optimizer 12.7.1.0
  with Simplex, Mixed Integer & Barrier Optimizers
5725-A06 5725-A29 5724-Y48 5724-Y49 5724-Y54 5724-Y55 5655-Y21
Copyright IBM Corp. 1988, 2017.  All Rights Reserved.

Type 'help' for a list of available commands.
Type 'help' followed by a command name for more
information on commands.

CPLEX> Specified objective sense: MINIMIZE
Selected objective  name:  line[1]
Selected RHS        name:  RHS
Selected bound      name:  BOUND
Problem '/tmp/cmpl.T15161.mps' read.
Read time = 0.05 sec. (8.25 ticks)
CPLEX> CPXPARAM_Read_APIEncoding                        "UTF-8"
Tried aggregator 3 times.
MIP Presolve eliminated 18385 rows and 29008 columns.
MIP Presolve modified 612 coefficients.
Aggregator did 1422 substitutions.
Reduced MIP has 2548 rows, 4163 columns, and 12185 nonzeros.
Reduced MIP has 3995 binaries, 0 generals, 0 SOSs, and 0 indicators.
Presolve time = 0.06 sec. (45.26 ticks)
Found incumbent of value 3808.356499 after 0.12 sec. (93.96 ticks)
Probing time = 0.01 sec. (2.66 ticks)
Tried aggregator 1 time.
MIP Presolve eliminated 0 rows and 45 columns.
Reduced MIP has 2548 rows, 4118 columns, and 12095 nonzeros.
Reduced MIP has 4118 binaries, 0 generals, 0 SOSs, and 0 indicators.
Presolve time = 0.01 sec. (11.14 ticks)
Probing time = 0.01 sec. (2.82 ticks)
Clique table members: 3545.
MIP emphasis: balance optimality and feasibility.
MIP search method: dynamic search.
Parallel mode: none, using 1 thread.
Root relaxation solution time = 0.02 sec. (17.85 ticks)

        Nodes                                         Cuts/
   Node  Left     Objective  IInf  Best Integer    Best Bound    ItCnt     Gap

*     0+    0                         3808.3565        0.0000           100.00%
*     0     0      integral     0     1756.1684     1756.1684     1240    0.00%
Elapsed time = 0.18 sec. (136.77 ticks, tree = 0.00 MB, solutions = 2)

Root node processing (before b&c):
  Real time             =    0.19 sec. (138.06 ticks)
Sequential b&c:
  Real time             =    0.00 sec. (0.00 ticks)
                          ------------
Total (root+branch&cut) =    0.19 sec. (138.06 ticks)

Solution pool: 2 solutions saved.

MIP - Integer optimal solution:  Objective =  1.7561683970e+03
Solution time =    0.19 sec.  Iterations = 1240  Nodes = 0
Deterministic time = 138.16 ticks  (735.95 ticks/sec)

CPLEX> Incumbent solution written to file '/tmp/cmpl.T15161.gsol'.
CPLEX> 
CMPL: Time used for model generation: 1 seconds
CMPL: Time used for solving the model: 0 seconds


Solution written to ASCII file: results/output_generated/2016-01-04-4/fair-nonlinear.sol

Solver - finished
